Maximize
  0.000309734 Z_549_0_0 + 0.00198866141874195 Z_549_0_1
   + 0.6825164360866119 Z_549_0_2 + 9.1614775274913697e-04 Z_549_0_3
   + 0.2142690207699584 Z_549_0_4
Subject To
 constraint1_5490: Z_549_0_0 + Z_549_0_1 + Z_549_0_2 + Z_549_0_3
   + Z_549_0_4 <= 1
 constraint2_5490: Z_549_0_0 <= 1
 constraint2_5491: Z_549_0_1 <= 1
 constraint2_5492: Z_549_0_2 <= 1
 constraint2_5493: Z_549_0_3 <= 1
Bounds
Binaries
 Z_549_0_0 Z_549_0_1 Z_549_0_2 Z_549_0_3 Z_549_0_4
End
